GLPSOL: GLPK LP/MIP Solver, v4.55
Parameter(s) specified in the command line:
 -m tmp.mod
Reading model section from tmp.mod...
Reading data section from tmp.mod...
971 lines were read
Generating obj...
Generating kirhoff...
Generating init_charge...
Generating batt_size...
Model has been successfully generated
GLPK Simplex Optimizer, v4.55
1010 rows, 1690 columns, 3666 non-zeros
Preprocessing...
844 rows, 1623 columns, 3539 non-zeros
Scaling...
 A: min|aij| =  1.000e+00  max|aij| =  1.000e+00  ratio =  1.000e+00
Problem data seem to be well scaled
Constructing initial basis...
Size of triangular part is 740
      0: obj =   0.000000000e+00  infeas =  6.130e+02 (104)
*   250: obj =   2.800000000e+01  infeas =  0.000e+00 (63)
*   276: obj =   1.200000000e+01  infeas =  0.000e+00 (63)
OPTIMAL LP SOLUTION FOUND
Time used:   0.0 secs
Memory used: 3.4 Mb (3537141 bytes)
#OUTPUT:
12
-13 -18 0 -7 -9 -3 1 0 -3 0 3 -10 -20 -10 0 1 -18 0 17 -2 0 0 0 1 0 2 0 -17 2 0 0 11 -11 0 -6 0 0 0 -1 0 -2 0 0 0 0 2 0 6 0 0 0 0 -4 6 -1 0 0 0 -6 0 0 0 0 -1 0 0 0 0 0 0 -3 -17 -2 -11 0 3 -1 4 -1 6 1 0 0 0 0 0 0 0 0 0 
-3 0 0 0 0 -3 0 -3 0 0 0 0 0 0 0 0 0 0 0 0 0 0 0 0 0 0 0 0 0 0 0 0 0 0 0 0 0 0 0 0 0 0 0 0 0 0 0 0 0 0 0 0 0 0 0 0 0 0 0 0 0 0 0 0 0 0 0 0 0 0 0 0 0 0 0 0 0 0 0 0 0 0 0 0 0 0 0 0 0 0 
-4 -10 0 -7 -7 0 0 0 0 0 0 0 -1 0 0 0 -1 0 -3 -2 0 0 0 0 0 0 0 0 0 0 0 0 0 0 0 0 0 0 -4 0 -2 0 0 0 0 1 0 0 0 -7 0 0 -1 0 0 0 0 0 0 0 0 0 0 0 0 0 0 0 0 0 0 0 0 0 0 -1 3 -1 1 0 0 0 0 0 0 0 0 0 0 0 
-17 -13 0 0 0 -14 2 5 0 0 3 -2 0 0 0 2 0 0 0 -2 0 0 0 0 0 0 -2 0 2 0 0 13 0 0 0 0 0 0 0 0 -2 0 0 0 0 0 0 0 0 0 0 0 0 0 0 0 0 0 0 0 0 0 0 0 0 0 0 0 0 0 -3 0 0 -13 0 2 0 0 0 0 0 0 0 0 0 0 0 0 0 0 
-10 -5 0 0 0 -10 0 -10 0 0 0 0 0 0 -8 0 0 0 0 0 0 0 0 0 0 0 0 0 0 0 0 0 0 0 0 0 0 0 0 -5 0 0 0 0 0 0 0 0 0 0 0 0 0 0 0 0 0 0 0 0 0 0 0 0 0 0 0 0 0 0 0 0 0 0 0 0 0 0 0 0 0 0 0 0 0 0 0 0 0 0 
-14 -15 0 -2 -2 -11 -2 -11 0 0 3 0 0 0 -20 -2 0 0 0 -2 0 0 0 0 0 0 0 0 2 0 0 0 0 0 0 0 0 0 0 -13 -2 0 -18 0 0 0 0 0 0 0 0 0 0 0 0 0 0 0 0 0 0 0 0 0 0 0 0 0 0 0 -3 0 0 0 0 2 0 0 0 0 0 0 0 0 0 0 0 0 0 0 
0 -16 -16 0 0 0 0 0 0 0 0 0 0 0 0 0 0 0 0 0 0 0 0 0 0 0 0 0 0 0 0 0 0 0 0 0 0 0 0 0 0 0 0 0 0 0 0 0 0 0 0 0 0 0 0 0 0 0 0 0 0 0 0 0 0 0 0 0 0 0 0 0 0 0 0 0 0 0 0 0 0 0 0 0 0 0 0 0 0 0 
0 -18 0 0 0 0 0 0 0 0 0 0 -9 0 0 0 0 0 -18 0 0 0 0 0 -9 0 0 0 0 0 0 0 0 0 0 0 0 0 0 0 0 0 0 0 0 0 0 0 0 0 0 0 0 0 0 0 0 0 0 0 0 0 0 0 0 0 0 0 0 0 0 0 0 0 0 0 0 0 0 0 0 0 0 0 0 0 0 0 0 0 
#OUTPUT END
Model has been successfully processed
